c FILE /home/rafael/Documents/HappySet/MIHS/inputs/happygen/output/graph_scale_free_k2_p0.2_v100_20241127_083754.txt
c SOURCE This is a scale-free graph formed for the happy graph colouring problem.
c DESCRIPTION It was generated using the problem generator of Rhyd Lewis
c
c GRAPH STATS
c Seed                             = -1590044853
c Number of Nodes                  = 100
c Number of colours k              = 2
c Number of pre-assignments        = 20
c Number of links per new node     = 5
c Density                          = 0.0979798
c 
c The degrees of nodes 1 to 100, respectively, are as follows 
c [41, 37, 32, 32, 30, 24, 20, 19, 18, 17, 16, 15, 14, 14, 14, 14, 13, 13, 13, 12, 12, 12, 12, 12, 11, 11, 
c  11, 11, 10, 10, 10, 10, 9, 9, 9, 9, 8, 8, 8, 8, 8, 8, 8, 8, 8, 8, 8, 8, 7, 7, 7, 
c  7, 7, 7, 7, 7, 7, 7, 7, 7, 7, 6, 6, 6, 6, 6, 6, 6, 6, 6, 6, 6, 6, 5, 5, 5, 
c  5, 5, 5, 5, 5, 5, 5, 5, 5, 5, 5, 5, 5, 5, 5, 5, 5, 5, 5, 5, 5, 5, 5, 5] 
c  
p edge 100 485 2
e 1 2
e 1 3
e 1 4
e 1 5
e 1 6
e 1 8
e 1 9
e 1 10
e 1 11
e 1 12
e 1 13
e 1 14
e 1 15
e 1 16
e 1 20
e 1 28
e 1 33
e 1 37
e 1 38
e 1 42
e 1 46
e 1 47
e 1 48
e 1 50
e 1 51
e 1 61
e 1 64
e 1 65
e 1 67
e 1 70
e 1 75
e 1 77
e 1 78
e 1 79
e 1 80
e 1 81
e 1 83
e 1 88
e 1 93
e 1 96
e 1 98
e 2 3
e 2 4
e 2 5
e 2 6
e 2 7
e 2 8
e 2 9
e 2 14
e 2 17
e 2 20
e 2 21
e 2 22
e 2 25
e 2 26
e 2 27
e 2 33
e 2 34
e 2 35
e 2 39
e 2 43
e 2 45
e 2 47
e 2 48
e 2 51
e 2 62
e 2 63
e 2 76
e 2 77
e 2 78
e 2 79
e 2 81
e 2 86
e 2 89
e 2 93
e 2 94
e 2 95
e 3 5
e 3 6
e 3 7
e 3 8
e 3 10
e 3 13
e 3 15
e 3 16
e 3 19
e 3 20
e 3 22
e 3 26
e 3 29
e 3 37
e 3 39
e 3 41
e 3 42
e 3 43
e 3 44
e 3 48
e 3 49
e 3 59
e 3 64
e 3 66
e 3 75
e 3 83
e 3 84
e 3 94
e 3 95
e 3 100
e 4 5
e 4 6
e 4 7
e 4 8
e 4 10
e 4 11
e 4 18
e 4 19
e 4 21
e 4 24
e 4 25
e 4 28
e 4 35
e 4 40
e 4 41
e 4 42
e 4 44
e 4 46
e 4 50
e 4 62
e 4 70
e 4 73
e 4 74
e 4 75
e 4 78
e 4 82
e 4 85
e 4 96
e 4 97
e 4 99
e 5 6
e 5 8
e 5 10
e 5 12
e 5 13
e 5 14
e 5 15
e 5 16
e 5 18
e 5 21
e 5 22
e 5 25
e 5 26
e 5 29
e 5 30
e 5 39
e 5 49
e 5 51
e 5 61
e 5 63
e 5 75
e 5 77
e 5 81
e 5 84
e 5 89
e 5 100
e 6 8
e 6 10
e 6 13
e 6 14
e 6 16
e 6 17
e 6 20
e 6 23
e 6 24
e 6 26
e 6 27
e 6 30
e 6 33
e 6 61
e 6 66
e 6 68
e 6 74
e 6 76
e 6 98
e 7 8
e 7 18
e 7 21
e 7 33
e 7 37
e 7 42
e 7 45
e 7 47
e 7 53
e 7 56
e 7 65
e 7 69
e 7 74
e 7 76
e 7 79
e 7 81
e 7 93
e 8 19
e 8 20
e 8 21
e 8 23
e 8 24
e 8 38
e 8 54
e 8 56
e 8 62
e 8 66
e 8 68
e 8 89
e 9 10
e 9 15
e 9 31
e 9 36
e 9 39
e 9 40
e 9 53
e 9 55
e 9 57
e 9 59
e 9 63
e 9 68
e 9 73
e 9 79
e 9 88
e 9 99
e 10 11
e 10 14
e 10 16
e 10 22
e 10 25
e 10 27
e 10 29
e 10 30
e 10 47
e 10 52
e 10 95
e 11 12
e 11 18
e 11 19
e 11 23
e 11 28
e 11 31
e 11 35
e 11 38
e 11 74
e 11 83
e 11 85
e 11 96
e 11 100
e 12 15
e 12 18
e 12 21
e 12 22
e 12 33
e 12 41
e 12 42
e 12 50
e 12 55
e 12 68
e 12 71
e 12 76
e 13 18
e 13 20
e 13 32
e 13 34
e 13 62
e 13 66
e 13 70
e 13 72
e 13 77
e 13 89
e 14 15
e 14 17
e 14 21
e 14 26
e 14 36
e 14 37
e 14 58
e 14 73
e 14 99
e 15 17
e 15 21
e 15 23
e 15 30
e 15 58
e 15 69
e 15 72
e 15 84
e 16 18
e 16 23
e 16 24
e 16 27
e 16 31
e 16 39
e 16 40
e 16 82
e 16 84
e 17 24
e 17 25
e 17 27
e 17 37
e 17 43
e 17 58
e 17 65
e 17 80
e 17 90
e 18 19
e 18 39
e 18 40
e 18 41
e 18 52
e 18 92
e 19 29
e 19 32
e 19 44
e 19 45
e 19 57
e 19 72
e 19 85
e 19 99
e 20 34
e 20 38
e 20 49
e 20 62
e 20 63
e 20 98
e 21 25
e 21 29
e 21 63
e 21 83
e 22 34
e 22 40
e 22 43
e 22 45
e 22 53
e 22 80
e 22 90
e 23 32
e 23 35
e 23 36
e 23 54
e 23 55
e 23 56
e 23 92
e 24 31
e 24 46
e 24 58
e 24 61
e 24 64
e 24 79
e 24 100
e 25 28
e 25 65
e 25 66
e 25 74
e 25 81
e 26 31
e 26 38
e 26 49
e 26 65
e 26 92
e 26 98
e 27 41
e 27 60
e 27 73
e 27 76
e 27 84
e 27 87
e 28 38
e 28 51
e 28 53
e 28 55
e 28 69
e 28 70
e 28 97
e 29 34
e 29 44
e 29 46
e 29 67
e 29 77
e 30 36
e 30 45
e 30 68
e 30 69
e 30 90
e 30 100
e 31 32
e 31 47
e 31 54
e 31 90
e 31 93
e 32 44
e 32 50
e 32 57
e 32 58
e 32 71
e 32 94
e 33 48
e 33 49
e 33 82
e 33 94
e 34 45
e 34 52
e 34 64
e 34 97
e 35 44
e 35 51
e 35 80
e 35 91
e 35 95
e 36 46
e 36 53
e 36 56
e 36 67
e 36 89
e 37 44
e 37 67
e 37 82
e 38 52
e 38 91
e 39 75
e 39 96
e 40 57
e 40 60
e 40 64
e 41 50
e 41 71
e 41 90
e 42 43
e 42 56
e 42 87
e 43 54
e 43 61
e 43 98
e 44 52
e 45 55
e 45 97
e 46 49
e 46 60
e 46 88
e 47 67
e 47 85
e 47 88
e 48 50
e 48 86
e 48 88
e 48 92
e 49 97
e 50 54
e 51 82
e 51 86
e 52 57
e 52 94
e 53 78
e 53 86
e 54 59
e 54 71
e 55 80
e 55 87
e 56 83
e 56 91
e 57 86
e 57 91
e 58 59
e 58 60
e 59 64
e 59 69
e 59 87
e 60 67
e 60 73
e 60 96
e 61 87
e 61 95
e 62 78
e 63 85
e 65 72
e 66 70
e 68 91
e 69 71
e 70 92
e 71 72
e 72 93
e 73 99
n 15 2
n 17 2
n 20 2
n 34 2
n 37 2
n 53 1
n 59 1
n 61 1
n 63 2
n 66 2
n 70 2
n 71 2
n 72 2
n 74 1
n 75 1
n 76 2
n 89 2
n 91 1
n 94 2
n 99 2
